c Simple 3x3 assignment problem
c 6 nodes: 3 workers (supply=1), 3 tasks (demand=-1)
c 9 arcs (complete bipartite graph)
c Each worker can do each task with varying costs
c Optimal cost: 11 (worker 1->task 2, worker 2->task 3, worker 3->task 1)
p min 6 9
n 1 1
n 2 1
n 3 1
n 4 -1
n 5 -1
n 6 -1
a 1 4 0 1 7
a 1 5 0 1 3
a 1 6 0 1 8
a 2 4 0 1 5
a 2 5 0 1 9
a 2 6 0 1 4
a 3 4 0 1 4
a 3 5 0 1 6
a 3 6 0 1 8
